StudentsNr = 10;
InstructorsNr = 7;
DaysNr = 1;
SlotsPerDay = 60;
AvailabilitySlotsLenght = 6;
RoomNr = 2;
ProgrammNr = 2;
DegreeNr = 1;
RolesNr = 4;
CoursesNr = 2;
InstructorsProgramm = [{1, 2}, {2}, {1}, {2}, {1}, {1}, {2}];
InstructorRolesPerProgramm = [|{6}, {1, 3}, {1}, {6}|{4}, {1, 4, 7}, {1, 2, 4, 7}, {4, 7}|];
InstructorsAvailability = [|0, 0, 1, 1, 1, 1, 1, 1, 1, 1, |0, 0, 1, 1, 1, 0, 1, 1, 1, 1, |0, 1, 1, 1, 1, 1, 1, 1, 1, 1, |0, 1, 1, 1, 1, 1, 1, 0, 0, 1, |0, 1, 0, 0, 1, 1, 1, 1, 1, 1, |0, 1, 1, 1, 1, 1, 1, 1, 1, 1, |1, 1, 1, 1, 1, 1, 1, 1, 1, 1|];
StudentsProgramm = [2, 2, 1, 2, 2, 1, 2, 2, 2, 1];
StudentsDegree = [1, 1, 1, 1, 1, 1, 1, 1, 1, 1];
StudentsSupervisorId = [1, 4, 3, 2, 2, 5, 1, 7, 2, 5];
StudentsCourseIds = [{1, 2}, {1, 2}, {1, 2}, {1, 2}, {1, 2}, {1, 2}, {1, 2}, {1, 2}, {1, 2}, {1, 2}];
StudentsAvailability = [|0, 1, 1, 1, 1, 1, 1, 1, 1, 1, |0, 1, 1, 1, 1, 1, 1, 1, 1, 1, |1, 1, 1, 1, 1, 1, 1, 1, 1, 1, |1, 1, 1, 1, 1, 1, 1, 1, 1, 1, |1, 1, 1, 1, 1, 1, 1, 1, 1, 1, |0, 1, 1, 1, 1, 1, 1, 1, 1, 1, |0, 0, 0, 1, 1, 1, 1, 1, 1, 1, |0, 0, 0, 0, 0, 1, 1, 1, 1, 1, |0, 0, 0, 1, 1, 1, 1, 1, 1, 1, |1, 1, 1, 1, 0, 1, 1, 1, 1, 1|];
TheoryticalMinCard = [0, 0, 0, 0, 0, 0, 0, 0, 0, 0];
CoursesInstructorIds = [{1, 4, 6, 7}, {3, 4, 5, 6, 7}];
RolesDemands = [1, 1, 1, 1];
RolesContinuity = [3, 2, 4];
ExamLen = [1, 1, 1, 1, 1, 1, 1, 1, 1, 1];
LunchTsMinLen = 1;
LunchStarts = [15..41];
SupervisorAvailable = 0;
OptimalLunchLenght = [2, 1];
OptimalStartTs = [2, 0];
OptimalFinishTs = [0, 60];
MinimizeRooms = 200;
RolesSoftContinuity = [|1, 2, 3, 4|1, 1, 2, 2|];
SameDegreeInRoom = 0;
Mergeability = 1;
